# Objective value = 1.9504447167180324e+03
x[0] 0
x[1] 1
x[2] 1
x[3] 1
x[4] 1
x[5] 0
x[6] 0
x[7] 1
x[8] 0
x[9] 0
x[10] 0
x[11] 0
x[12] 1
x[13] 1
x[14] 1
x[15] 1
x[16] 0
x[17] 1
x[18] 1
x[19] 0
x[20] 0
x[21] 0
x[22] 1
x[23] 0
x[24] 1
x[25] 1
x[26] 1
x[27] 1
x[28] 1
x[29] 1
x[30] 1
x[31] 1
x[32] 0
x[33] 0
x[34] 1
x[35] 1
x[36] 1
x[37] 1
x[38] 1
x[39] 0
x[40] 1
x[41] 1
x[42] 0
x[43] 0
x[44] 0
x[45] 1
x[46] 0
x[47] 0
x[48] 0
x[49] 0
x[50] 1
x[51] 0
x[52] 1
x[53] 1
x[54] 0
x[55] 1
x[56] 1
x[57] 0
x[58] 0
x[59] 0
x[60] 0
x[61] 1
x[62] 1
x[63] 1
x[64] 1
x[65] 0
x[66] 1
x[67] 1
x[68] 0
x[69] 1
x[70] 0
x[71] 0
x[72] 1
x[73] 0
x[74] 0
x[75] 0
x[76] 1
x[77] 1
x[78] 0
x[79] 1
x[80] 0
x[81] 0
x[82] 1
x[83] 1
x[84] 1
x[85] 1
x[86] 0
x[87] 0
x[88] 0
x[89] 0
x[90] 1
x[91] 0
x[92] 0
x[93] 0
x[94] 0
x[95] 1
x[96] 0
x[97] 0
x[98] 1
x[99] 1
x[100] 0
x[101] 0
x[102] 1
x[103] 1
x[104] 1
x[105] 1
x[106] 1
x[107] 0
x[108] 1
x[109] 1
x[110] 1
x[111] 0
x[112] 0
x[113] 0
x[114] 0
x[115] 1
x[116] 0
x[117] 0
x[118] 0
x[119] 1
x[120] 0
x[121] 0
x[122] 1
x[123] 1
x[124] 0
x[125] 1
x[126] 0
x[127] 1
x[128] 0
x[129] 1
x[130] 0
x[131] 1
x[132] 1
x[133] 1
x[134] 0
x[135] 1
x[136] 0
x[137] 0
x[138] 0
x[139] 1
x[140] 0
x[141] 0
x[142] 0
x[143] 1
x[144] 1
x[145] 0
x[146] 0
x[147] 0
x[148] 1
x[149] 1
x[150] 0
x[151] 1
x[152] 1
x[153] 0
x[154] 1
x[155] 0
x[156] 0
x[157] 0
x[158] 0
x[159] 1
x[160] 1
x[161] 1
x[162] 1
x[163] 0
x[164] 0
x[165] 1
x[166] 1
x[167] 0
x[168] 1
x[169] 0
x[170] 0
x[171] 1
x[172] 1
x[173] 0
x[174] 0
x[175] 1
x[176] 0
x[177] 1
x[178] 1
x[179] 0
x[180] 0
x[181] 1
x[182] 0
x[183] 0
x[184] 1
x[185] 1
x[186] 0
x[187] 1
x[188] 0
x[189] 0
x[190] 0
x[191] 1
x[192] 0
x[193] 1
x[194] 1
x[195] 1
x[196] 1
x[197] 0
x[198] 0
x[199] 1
x[200] 1
x[201] 0
x[202] 1
x[203] 1
x[204] 1
x[205] 0
x[206] 0
x[207] 0
x[208] 1
x[209] 1
x[210] 1
x[211] 1
x[212] 1
x[213] 1
x[214] 1
x[215] 0
x[216] 1
x[217] 0
x[218] 1
x[219] 0
x[220] 0
x[221] 0
x[222] 0
x[223] 1
x[224] 1
x[225] 0
x[226] 1
x[227] 0
x[228] 1
x[229] 1
x[230] 1
x[231] 0
x[232] 0
x[233] 1
x[234] 1
x[235] 1
x[236] 1
x[237] 1
x[238] 0
x[239] 0
x[240] 0
x[241] 1
x[242] 0
x[243] 0
x[244] 1
x[245] 1
x[246] 1
x[247] 1
x[248] 0
x[249] 1
x[250] 0
x[251] 1
x[252] 0
x[253] 0
x[254] 0
x[255] 0
x[256] 1
x[257] 1
x[258] 1
x[259] 0
x[260] 1
x[261] 1
x[262] 0
x[263] 1
x[264] 0
x[265] 1
x[266] 1
x[267] 0
x[268] 1
x[269] 0
x[270] 0
x[271] 1
x[272] 1
x[273] 1
x[274] 1
x[275] 1
x[276] 1
x[277] 1
x[278] 0
x[279] 1
x[280] 0
x[281] 0
x[282] 0
x[283] 1
x[284] 0
x[285] 0
x[286] 1
x[287] 0
x[288] 0
x[289] 1
x[290] 1
x[291] 1
x[292] 1
x[293] 1
x[294] 1
x[295] 0
x[296] 1
x[297] 1
x[298] 0
x[299] 0
x[300] 1
x[301] 1
x[302] 1
x[303] 0
x[304] 0
x[305] 0
x[306] 1
x[307] 1
x[308] 1
x[309] 1
x[310] 1
x[311] 0
x[312] 1
x[313] 1
x[314] 1
x[315] 1
x[316] 1
x[317] 0
x[318] 0
x[319] 1
x[320] 0
x[321] 0
x[322] 0
x[323] 1
x[324] 0
x[325] 1
x[326] 0
x[327] 0
x[328] 1
x[329] 0
x[330] 0
x[331] 0
x[332] 1
x[333] 1
x[334] 1
x[335] 1
x[336] 1
x[337] 1
x[338] 1
x[339] 0
x[340] 1
x[341] 1
x[342] 1
x[343] 1
x[344] 0
x[345] 0
x[346] 1
x[347] 0
x[348] 1
x[349] 1
x[350] 0
x[351] 0
x[352] 0
x[353] 1
x[354] 1
x[355] 1
x[356] 1
x[357] 0
x[358] 0
x[359] 1
x[360] 0
x[361] 1
x[362] 0
x[363] 0
x[364] 0
x[365] 1
x[366] 0
x[367] 0
x[368] 1
x[369] 1
x[370] 0
x[371] 0
x[372] 1
x[373] 1
x[374] 1
x[375] 1
x[376] 1
x[377] 1
x[378] 0
x[379] 0
x[380] 1
x[381] 1
x[382] 1
x[383] 0
x[384] 1
x[385] 1
x[386] 1
x[387] 1
x[388] 1
x[389] 1
x[390] 0
x[391] 1
x[392] 1
x[393] 0
x[394] 0
x[395] 0
x[396] 1
x[397] 0
x[398] 0
x[399] 1
x[400] 0
x[401] 1
x[402] 1
x[403] 0
x[404] 0
x[405] 1
x[406] 1
x[407] 1
x[408] 0
x[409] 0
x[410] 1
x[411] 0
x[412] 1
x[413] 1
x[414] 1
x[415] 0
x[416] 1
x[417] 1
x[418] 1
x[419] 0
x[420] 1
x[421] 1
x[422] 1
x[423] 1
x[424] 0
x[425] 1
x[426] 0
x[427] 0
x[428] 1
x[429] 1
x[430] 1
x[431] 1
x[432] 0
x[433] 1
x[434] 0
x[435] 1
x[436] 1
x[437] 1
x[438] 0
x[439] 1
x[440] 0
x[441] 0
x[442] 1
x[443] 1
x[444] 1
x[445] 1
x[446] 0
x[447] 0
x[448] 1
x[449] 1
x[450] 1
x[451] 1
x[452] 1
x[453] 1
x[454] 1
x[455] 0
x[456] 1
x[457] 0
x[458] 1
x[459] 0
x[460] 1
x[461] 0
x[462] 0
x[463] 0
x[464] 0
x[465] 0
x[466] 0
x[467] 0
x[468] 0
x[469] 1
x[470] 1
x[471] 1
x[472] 1
x[473] 1
x[474] 1
x[475] 1
x[476] 1
x[477] 0
x[478] 1
x[479] 0
x[480] 1
x[481] 0
x[482] 0
x[483] 1
x[484] 1
x[485] 1
x[486] 0
x[487] 1
x[488] 1
x[489] 1
x[490] 0
x[491] 1
x[492] 1
x[493] 1
x[494] 0
x[495] 0
x[496] 1
x[497] 1
x[498] 0
x[499] 0
x[500] 1
x[501] 1
x[502] 0
x[503] 0
x[504] 1
x[505] 0
x[506] 1
x[507] 1
x[508] 0
x[509] 1
x[510] 0
x[511] 0
x[512] 1
x[513] 1
x[514] 1
x[515] 0
x[516] 1
x[517] 1
x[518] 1
x[519] 0
x[520] 0
x[521] 0
x[522] 1
x[523] 0
x[524] 1
x[525] 1
x[526] 0
x[527] 1
x[528] 1
x[529] 1
x[530] 1
x[531] 1
x[532] 1
x[533] 1
x[534] 1
x[535] 1
x[536] 0
x[537] 1
x[538] 1
x[539] 0
x[540] 0
x[541] 1
x[542] 1
x[543] 0
x[544] 0
x[545] 0
x[546] 0
x[547] 1
x[548] 0
x[549] 0
x[550] 1
x[551] 0
x[552] 1
x[553] 0
x[554] 1
x[555] 1
x[556] 0
x[557] 1
x[558] 0
x[559] 1
x[560] 0
x[561] 1
x[562] 0
x[563] 0
x[564] 0
x[565] 0
x[566] 1
x[567] 1
x[568] 1
x[569] 1
x[570] 0
x[571] 0
x[572] 1
x[573] 1
x[574] 0
x[575] 1
x[576] 1
x[577] 1
x[578] 1
x[579] 1
x[580] 1
x[581] 1
x[582] 0
x[583] 0
x[584] 0
x[585] 1
x[586] 1
x[587] 0
x[588] 1
x[589] 0
x[590] 0
x[591] 1
x[592] 1
x[593] 1
x[594] 0
x[595] 0
x[596] 1
x[597] 1
x[598] 1
x[599] 1
x[600] 1
x[601] 1
x[602] 0
x[603] 1
x[604] 1
x[605] 1
x[606] 1
x[607] 1
x[608] 1
x[609] 0
x[610] 1
x[611] 1
x[612] 1
x[613] 0
x[614] 1
x[615] 1
x[616] 0
x[617] 0
x[618] 1
x[619] 1
x[620] 1
x[621] 0
x[622] 0
x[623] 1
x[624] 0
x[625] 1
x[626] 0
x[627] 1
x[628] 0
x[629] 1
x[630] 0
x[631] 1
x[632] 0
x[633] 0
x[634] 0
x[635] 0
x[636] 1
x[637] 1
x[638] 0
x[639] 1
x[640] 1
x[641] 1
x[642] 0
x[643] 1
x[644] 0
x[645] 1
x[646] 0
x[647] 1
x[648] 0
x[649] 1
x[650] 0
x[651] 1
x[652] 1
x[653] 1
x[654] 1
x[655] 1
x[656] 0
x[657] 0
x[658] 0
x[659] 0
x[660] 1
x[661] 0
x[662] 0
x[663] 0
x[664] 0
x[665] 0
x[666] 0
x[667] 1
x[668] 0
x[669] 1
x[670] 1
x[671] 1
x[672] 1
x[673] 0
x[674] 0
x[675] 1
x[676] 1
x[677] 1
x[678] 1
x[679] 1
x[680] 1
x[681] 0
x[682] 1
x[683] 1
x[684] 0
x[685] 0
x[686] 0
x[687] 0
x[688] 0
x[689] 0
x[690] 1
x[691] 0
x[692] 1
x[693] 0
x[694] 1
x[695] 0
x[696] 1
x[697] 0
x[698] 1
x[699] 0
x[700] 1
x[701] 0
x[702] 1
x[703] 0
x[704] 1
x[705] 1
x[706] 0
x[707] 1
x[708] 0
x[709] 0
x[710] 1
x[711] 1
x[712] 1
x[713] 1
x[714] 0
x[715] 1
x[716] 0
x[717] 0
x[718] 0
x[719] 1
x[720] 1
x[721] 0
x[722] 1
x[723] 0
x[724] 0
x[725] 1
x[726] 0
x[727] 1
x[728] 1
x[729] 0
x[730] 0
x[731] 0
x[732] 0
x[733] 0
x[734] 1
x[735] 1
x[736] 1
x[737] 1
x[738] 0
x[739] 0
x[740] 0
x[741] 1
x[742] 0
x[743] 0
x[744] 0
x[745] 0
x[746] 0
x[747] 1
x[748] 0
x[749] 0
x[750] 0
x[751] 0
x[752] 0
x[753] 1
x[754] 1
x[755] 0
x[756] 1
x[757] 1
x[758] 0
x[759] 0
x[760] 0
x[761] 0
x[762] 1
x[763] 1
x[764] 0
x[765] 0
x[766] 0
x[767] 0
x[768] 1
x[769] 1
x[770] 0
x[771] 1
x[772] 0
x[773] 0
x[774] 1
x[775] 1
x[776] 1
x[777] 0
x[778] 1
x[779] 1
x[780] 1
x[781] 0
x[782] 1
x[783] 1
x[784] 0
x[785] 0
x[786] 0
x[787] 1
x[788] 1
x[789] 1
x[790] 1
x[791] 1
x[792] 0
x[793] 1
x[794] 0
x[795] 1
x[796] 1
x[797] 0
x[798] 1
x[799] 1
x[800] 1
x[801] 1
x[802] 1
x[803] 1
x[804] 1
x[805] 1
x[806] 1
x[807] 1
x[808] 1
x[809] 0
x[810] 0
x[811] 1
x[812] 1
x[813] 0
x[814] 1
x[815] 1
x[816] 0
x[817] 0
x[818] 1
x[819] 0
x[820] 1
x[821] 0
x[822] 0
x[823] 1
x[824] 1
x[825] 0
x[826] 1
x[827] 0
x[828] 0
x[829] 1
x[830] 0
x[831] 0
x[832] 1
x[833] 1
x[834] 0
x[835] 1
x[836] 0
x[837] 0
x[838] 0
x[839] 1
x[840] 1
x[841] 0
x[842] 1
x[843] 0
x[844] 1
x[845] 1
x[846] 0
x[847] 1
x[848] 1
x[849] 0
x[850] 1
x[851] 0
x[852] 0
x[853] 1
x[854] 1
x[855] 0
x[856] 1
x[857] 1
x[858] 1
x[859] 0
x[860] 0
x[861] 0
x[862] 1
x[863] 1
x[864] 0
x[865] 1
x[866] 1
x[867] 0
x[868] 0
x[869] 1
x[870] 0
x[871] 1
x[872] 1
x[873] 1
x[874] 1
x[875] 1
x[876] 0
x[877] 1
x[878] 0
x[879] 1
x[880] 0
x[881] 0
x[882] 0
x[883] 1
x[884] 1
x[885] 1
x[886] 1
x[887] 1
x[888] 0
x[889] 0
x[890] 1
x[891] 1
x[892] 1
x[893] 0
x[894] 1
x[895] 0
x[896] 1
x[897] 0
x[898] 0
x[899] 1
x[900] 0
x[901] 0
x[902] 0
x[903] 1
x[904] 1
x[905] 0
x[906] 1
x[907] 0
x[908] 0
x[909] 1
x[910] 1
x[911] 0
x[912] 1
x[913] 1
x[914] 1
x[915] 1
x[916] 1
x[917] 0
x[918] 0
x[919] 1
x[920] 0
x[921] 1
x[922] 0
x[923] 0
x[924] 1
x[925] 1
x[926] 1
x[927] 0
x[928] 1
x[929] 1
x[930] 0
x[931] 1
x[932] 1
x[933] 1
x[934] 1
x[935] 1
x[936] 1
x[937] 0
x[938] 0
x[939] 0
x[940] 0
x[941] 1
x[942] 1
x[943] 1
x[944] 1
x[945] 0
x[946] 0
x[947] 0
x[948] 1
x[949] 1
x[950] 0
x[951] 1
x[952] 1
x[953] 0
x[954] 1
x[955] 1
x[956] 0
x[957] 0
x[958] 1
x[959] 1
x[960] 1
x[961] 0
x[962] 1
x[963] 1
x[964] 0
x[965] 1
x[966] 1
x[967] 1
x[968] 1
x[969] 0
x[970] 0
x[971] 0
x[972] 1
x[973] 1
x[974] 0
x[975] 1
x[976] 1
x[977] 0
x[978] 1
x[979] 1
x[980] 1
x[981] 0
x[982] 0
x[983] 0
x[984] 0
x[985] 1
x[986] 1
x[987] 1
x[988] 1
x[989] 1
x[990] 0
x[991] 1
x[992] 1
x[993] 1
x[994] 0
x[995] 0
x[996] 1
x[997] 1
x[998] 1
x[999] 1
